#=======================================================
# FHI-aims file: hpt_start.in
# Created using the Atomic Simulation Environment (ASE)
# Tue Oct 15 18:41:26 2024
#=======================================================
lattice_vector 5.6002857099999996 0.0000000000000000 0.0000000000000000 
lattice_vector 2.8001428499999999 4.8499896900000001 0.0000000000000000 
lattice_vector 0.0000000000000000 0.0000000000000000 151.4315353100000436 
atom 3.0083970964095896 3.1073674920779881 19.5000000000000000 H
atom 4.2002085300000003 0.8082546099999999 0.0000000000000000 Pt
atom 1.4000012100000001 0.8081462900000000 0.0000297499999995 Pt
atom 5.6001448099999998 3.2332792800000001 0.0000941200000000 Pt
atom 2.8001798999999998 3.2333270999999999 0.0000956700000003 Pt
atom 4.2001230100000004 4.0416466700000004 2.3050458999999996 Pt
atom 1.4001210699999997 4.0416339199999998 2.3050872800000022 Pt
atom 2.8001183599999999 1.6166858399999997 2.3051255299999980 Pt
atom -0.0000389500000000 1.6165989899999997 2.3051376100000027 Pt
atom 1.5591600237437790 2.3375036627836012 4.6189210778000049 Pt
atom 0.1186596613901820 0.0221329109689660 4.6121115127085917 Pt
atom 4.3059713575448288 2.3376583695625941 4.5774336769993980 Pt
atom 2.9487328250185425 -0.0512478244477641 4.6355137865550100 Pt
atom 4.1230174005213858 0.9114377218375878 6.9158948345639439 Pt
atom 1.3753707448821260 0.6586798456489932 7.0285418740584751 Pt
atom 2.7460773955608238 3.1987405680301229 6.9051503508312058 Pt
atom 5.5848562347784858 3.1734100321090875 6.9173151577290666 Pt
atom 4.2009801950182304 3.9121241133847255 9.1974770941369286 Pt
atom 2.8517239960355325 1.5012514101261578 9.2656229098044420 Pt
atom -0.0208242088628555 1.6283479646467063 9.2740649537583728 Pt
atom 1.3698897956071594 4.1038559802700059 9.1179833498582106 Pt
atom 1.5261508598097513 2.3834464166814358 11.4366839744247581 Pt
atom 2.8154637851125428 0.0723643836189174 11.5775341593670351 Pt
atom 4.2143797654391140 2.2349005324034965 11.5577602200285821 Pt
atom 0.0335537925332472 0.0173985497507042 11.3603254865630898 Pt
